p cnf 12 50 
-3 12 7 0
-4 -2 11 0
-2 9 3 0
-4 5 -9 0
12 8 -3 0
3 9 -7 0
-11 2 -8 0
-9 2 -4 0
10 9 -5 0
-12 6 -2 0
-10 -11 -12 0
9 2 -1 0
-8 -7 -11 0
11 3 -4 0
-1 -12 5 0
-2 12 11 0
1 12 -11 0
4 -8 1 0
2 6 -7 0
7 10 11 0
-8 -3 11 0
4 8 1 0
-8 2 4 0
-9 8 3 0
2 3 1 0
-8 9 10 0
11 -2 -8 0
3 -4 6 0
3 9 -12 0
7 -10 1 0
-9 4 -12 0
-11 10 -3 0
9 -12 -5 0
-6 -2 -7 0
-5 -10 -8 0
-4 -11 6 0
3 7 -2 0
-2 -9 -11 0
6 9 3 0
-8 -4 10 0
-5 -12 9 0
-3 5 -11 0
-10 -2 -3 0
-2 7 -9 0
-2 10 -6 0
2 -5 1 0
-3 -12 -5 0
6 -11 -7 0
9 4 7 0
7 1 -8 0
